p cnf 19 11
e 1 0
a 2 0
e 3 0
a 4 5 0
e 6 7 8 9 0
a 10 11 0
e 12 0
a 13 0
e 14 15 0
a 16 17 18 0
e 19 0
-19 4 0
-1 8 -4 -11 2 0
-18 -2 15 -10 0
3 15 -10 -7 -8 0
-16 7 3 0
10 17 -19 0
-14 -7 -16 1 -12 0
11 3 -8 -19 -5 0
-8 14 10 2 0
15 -2 13 -14 -9 0
16 -15 6 -14 0
